--- Job reto5.gms Start 09/07/24 13:02:42 46.5.0 a671108d WEX-WEI x86 64bit/MS Windows
--- Applying:
    C:\GAMS\46\gmsprmNT.txt
--- GAMS Parameters defined
    Input C:\Users\progra.DESKTOP-GV4Q93K\Documents\Vstudio\Geneticos\retointegrador\reto5.gms
    PageSize 0
    ScrDir C:\Users\progra.DESKTOP-GV4Q93K\Documents\Vstudio\Geneticos\retointegrador\225e\
    SysDir C:\GAMS\46\
    LogOption 3
    ErrMsg 1
    ErrorLog 99
    IDE 1
    LstTitleLeftAligned 1
Licensee: GAMS Community License for Ricardo Kaleb FloresG240527|0002AO-GEN
          INSTITUTO TECNOLOGICO Y DE EST. SUP. DE MONTERREY, IndustrCL15732
          C:\Users\progra.DESKTOP-GV4Q93K\Documents\GAMS\gamslice.txt
          Ricardo Kaleb Flores Alfonso, a01198716@tec.mx                   
          Community license for demonstration and instructional purposes only
Processor information: 1 socket(s), 4 core(s), and 8 thread(s) available
GAMS 46.5.0   Copyright (C) 1987-2024 GAMS Development. All rights reserved
--- Starting compilation
--- reto5.gms(8) 3 Mb
--- . dist_matrix4.csv(41) 3 Mb
--- reto5.gms(27) 3 Mb
--- Starting execution: elapsed 0:00:01.050
--- Generating MIP model transpor_1
--- reto5.gms(65) 5 Mb
---   1,563 rows  1,640 columns  9,241 non-zeroes
---   1,600 discrete-columns
--- Range statistics (absolute non-zero finite values)
--- RHS       [min, max] : [ 1.000E+00, 3.900E+01] - Zero values observed as well
--- Bound     [min, max] : [ 1.000E+00, 1.000E+00] - Zero values observed as well
--- Matrix    [min, max] : [ 6.900E-01, 9.990E+02]
--- Executing CPLEX (Solvelink=2): elapsed 0:00:01.255

IBM ILOG CPLEX   46.5.0 a671108d May 8, 2024           WEI x86 64bit/MS Window

*** This solver runs with a community license. No commercial use.
--- GMO setup time: 0.00s
--- Space for names approximately 0.05 Mb
--- Use option 'names no' to turn use of names off
--- GMO memory 0.87 Mb (peak 0.88 Mb)
--- Dictionary memory 0.00 Mb
--- Cplex 22.1.1.0 link memory 0.05 Mb (peak 0.22 Mb)
--- Starting Cplex

Version identifier: 22.1.1.0 | 2022-11-27 | 9160aff4d
CPXPARAM_Advance                                 0
CPXPARAM_MIP_Display                             4
CPXPARAM_MIP_Pool_Capacity                       0
CPXPARAM_MIP_Tolerances_AbsMIPGap                0
Generic callback                                 0x50
Found incumbent of value 39960.000000 after 0.00 sec. (0.13 ticks)
Tried aggregator 1 time.
MIP Presolve eliminated 0 rows and 1 columns.
Reduced MIP has 1562 rows, 1639 columns, and 7646 nonzeros.
Reduced MIP has 1600 binaries, 0 generals, 0 SOSs, and 0 indicators.
Presolve time = 0.00 sec. (3.84 ticks)
Probing time = 0.02 sec. (2.89 ticks)
Tried aggregator 1 time.
Detecting symmetries...
Reduced MIP has 1562 rows, 1639 columns, and 7646 nonzeros.
Reduced MIP has 1600 binaries, 0 generals, 0 SOSs, and 0 indicators.
Presolve time = 0.14 sec. (5.41 ticks)
Probing time = 0.00 sec. (2.89 ticks)
Clique table members: 821.
MIP emphasis: balance optimality and feasibility.
MIP search method: dynamic search.
Parallel mode: deterministic, using up to 8 threads.
Parallel mode: deterministic, using up to 2 threads for parallel tasks at root LP.
Parallel mode: deterministic, using up to 6 threads for concurrent optimization:
 * Starting dual Simplex on 1 thread...
 * Starting Barrier on 4 threads...
 * Starting primal Simplex on 1 thread...
Tried aggregator 1 time.
No LP presolve or aggregator reductions.
Presolve time = 0.00 sec. (0.82 ticks)
Initializing dual steep norms . . .

Iteration log . . .
Iteration:     1   Dual objective     =            72.160000

Dual simplex solved model.

Root relaxation solution time = 0.16 sec. (2.79 ticks)

        Nodes                                         Cuts/
   Node  Left     Objective  IInf  Best Integer    Best Bound    ItCnt     Gap

*     0+    0                        39960.0000        0.0000           100.00%
Found incumbent of value 39960.000000 after 0.33 sec. (23.81 ticks)
      0     0       87.4860    77    39960.0000       87.4860       72   99.78%
      0     0       98.0175    81    39960.0000     Cuts: 128      137   99.75%
      0     0       99.7595    82    39960.0000      Cuts: 96      180   99.75%
      0     0      100.1817    82    39960.0000      Cuts: 62      208   99.75%
      0     0      100.1947    82    39960.0000      Cuts: 23      220   99.75%
      0     0      100.9925    82    39960.0000       Cuts: 4      223   99.75%
      0     0      101.8550    84    39960.0000      Cuts: 14      232   99.75%
      0     0      103.5800    80    39960.0000      Cuts: 10      236   99.74%
*     0+    0                          169.6300      103.5800            38.94%
Found incumbent of value 169.630000 after 3.94 sec. (212.19 ticks)
*     0+    0                          168.0600      103.5800            38.37%
Found incumbent of value 168.060000 after 7.25 sec. (403.52 ticks)
      0     0  -1.00000e+75     0      168.0600      103.5800      236   38.37%
*     0+    0                          149.8200      103.5800            30.86%
Found incumbent of value 149.820000 after 7.25 sec. (407.42 ticks)
      0     2      103.5800    80      149.8200      106.9700      236   28.60%
Elapsed time = 8.84 sec. (408.89 ticks, tree = 0.02 MB)
*   187   160      integral     0      134.1300      106.9700     2725   20.25%
                                                     Cuts: 17                  
Found incumbent of value 134.130000 after 14.61 sec. (500.49 ticks)
*   321+    5                          133.3700      106.9700            19.79%
Found incumbent of value 133.370000 after 15.67 sec. (552.09 ticks)
*   627   419      integral     0      132.4100      106.9700     6868   19.21%
                                                     Cuts: 15                  
Found incumbent of value 132.410000 after 17.53 sec. (626.83 ticks)
    723   461      107.1241    37      132.4100      106.9700     7389   19.21%
*   879   592      integral     0      131.5600      106.9700     9066   18.69%
                                                  Impl Bds: 8                  
Found incumbent of value 131.560000 after 18.42 sec. (681.27 ticks)
*  1393   998      integral     0      126.2100      106.9700    14335   15.24%
                                                     Cuts: 24                  
Found incumbent of value 126.210000 after 21.08 sec. (804.36 ticks)
*  1503+  750                          121.9000      106.9700            12.25%
                                                     Cuts: 10                  
Found incumbent of value 121.900000 after 22.00 sec. (856.45 ticks)
*  1543   768      integral     0      121.7100      106.9700    16171   12.11%
                                                      Cuts: 5                  
Found incumbent of value 121.710000 after 22.16 sec. (868.81 ticks)
*  1673   830      integral     0      121.5100      106.9700    17258   11.97%
                                                      Cuts: 7                  
Found incumbent of value 121.510000 after 23.11 sec. (914.22 ticks)
*  1943   966      integral     0      114.2500      106.9700    19541    6.37%
                                                     Cuts: 11                  
Found incumbent of value 114.250000 after 24.00 sec. (969.60 ticks)
   2398   706      111.3472    46      114.2500      107.0775    24903    6.28%
                                                     Cuts: 22                  
*  2399   743      integral     0      112.4200      107.0775    25665    4.75%
Found incumbent of value 112.420000 after 24.99 sec. (1043.24 ticks)

Performing restart 1

Repeating presolve.
Tried aggregator 1 time.
MIP Presolve eliminated 0 rows and 708 columns.
Reduced MIP has 1562 rows, 931 columns, and 5592 nonzeros.
Reduced MIP has 892 binaries, 0 generals, 0 SOSs, and 0 indicators.
Presolve time = 0.01 sec. (3.05 ticks)
Tried aggregator 1 time.
Reduced MIP has 1562 rows, 931 columns, and 5592 nonzeros.
Reduced MIP has 892 binaries, 0 generals, 0 SOSs, and 0 indicators.
Presolve time = 0.00 sec. (3.69 ticks)
Represolve time = 0.31 sec. (18.12 ticks)
Tried aggregator 1 time.
No LP presolve or aggregator reductions.
Presolve time = 0.00 sec. (0.92 ticks)
Initializing dual steep norms . . .

Iteration log . . .
Iteration:     1   Dual objective     =            37.270000
Iteration:    93   Dual objective     =            90.045000
Iteration:   196   Dual objective     =           106.900769

Repeating presolve.
Tried aggregator 1 time.
MIP Presolve eliminated 0 rows and 262 columns.
Reduced MIP has 1562 rows, 669 columns, and 4820 nonzeros.
Reduced MIP has 630 binaries, 0 generals, 0 SOSs, and 0 indicators.
Presolve time = 0.00 sec. (2.28 ticks)
Tried aggregator 1 time.
Reduced MIP has 1562 rows, 669 columns, and 4820 nonzeros.
Reduced MIP has 630 binaries, 0 generals, 0 SOSs, and 0 indicators.
Presolve time = 0.00 sec. (2.98 ticks)
Represolve time = 0.26 sec. (11.82 ticks)
Tried aggregator 1 time.
LP Presolve eliminated 11 rows and 0 columns.
Reduced LP has 1751 rows, 669 columns, and 8728 nonzeros.
Presolve time = 0.00 sec. (0.96 ticks)
Initializing dual steep norms . . .

Iteration log . . .
Iteration:     1   Dual objective     =            31.740000
Iteration:   121   Dual objective     =           100.805000
Initializing dual steep norms . . .
   3471     0      107.1033    82      112.4200      Cuts: 37    45102    4.36%
   3471     0      107.3012    85      112.4200      Cuts: 79    45148    3.84%
   3471     0      107.3858    88      112.4200      Cuts: 87    45187    3.84%
*  3471+    0                          111.4800      108.1033             3.03%
Found incumbent of value 111.480000 after 40.25 sec. (1671.10 ticks)
   3471     0      107.4258    71      111.4800      Cuts: 66    45232    2.67%
*  3471+    0                          111.3200      108.5018             2.53%
Found incumbent of value 111.320000 after 43.31 sec. (1818.00 ticks)
   3471     0      107.9429    94      111.3200      Cuts: 52    45269    2.37%
*  3471+    0                          110.0200      108.6867             1.21%
Found incumbent of value 110.020000 after 45.72 sec. (1921.75 ticks)
   3471     0      108.0583    84      110.0200      Cuts: 67    45314    1.14%
   3471     0      108.1500    62      110.0200      Cuts: 88    45369    1.14%
*  3471+    0                          109.6000      108.7627             0.76%
Found incumbent of value 109.600000 after 50.61 sec. (2086.87 ticks)
   3471     0      108.1700    62      109.6000      Cuts: 45    45399    0.40%
   3471     0      108.2175    84      109.6000      Cuts: 16    45446    0.40%

Clique cuts applied:  12
Cover cuts applied:  7
Implied bound cuts applied:  18
Flow cuts applied:  4
Mixed integer rounding cuts applied:  64
Zero-half cuts applied:  26
Multi commodity flow cuts applied:  16
Gomory fractional cuts applied:  27

Root node processing (before b&c):
  Real time             =    7.47 sec. (408.03 ticks)
Parallel b&c, 8 threads:
  Real time             =   49.47 sec. (1814.87 ticks)
  Sync time (average)   =   11.87 sec.
  Wait time (average)   =    0.00 sec.
                          ------------
Total (root+branch&cut) =   56.94 sec. (2222.89 ticks)

--- MIP status (102): integer optimal, tolerance.
--- Cplex Time: 58.36sec (det. 2222.90 ticks)

--- Returning a primal only solution to GAMS (marginals all set to NA).
--- Fixing integer variables and solving final LP...

Version identifier: 22.1.1.0 | 2022-11-27 | 9160aff4d
CPXPARAM_Advance                                 2
CPXPARAM_MIP_Display                             4
CPXPARAM_MIP_Pool_Capacity                       0
CPXPARAM_MIP_Tolerances_AbsMIPGap                0
Tried aggregator 1 time.
LP Presolve eliminated 80 rows and 1601 columns.
Reduced LP has 1482 rows, 39 columns, and 2964 nonzeros.
Presolve time = 0.00 sec. (1.66 ticks)

Iteration log . . .
Iteration:     1   Dual objective     =           109.600000

--- Fixed MIP status (1): optimal.
--- Cplex Time: 0.00sec (det. 3.82 ticks)


Solution satisfies tolerances
MIP Solution:          109.600000    (45515 iterations, 3471 nodes)
Final Solve:           109.600000    (38 iterations)

Best possible:         109.589687
Absolute gap:            0.010313
Relative gap:            0.000094

--- Reading solution for model transpor_1
--- reto5.gms(65) 5 Mb  60 secs
*** Status: Normal completion
--- Job reto5.gms Stop 09/07/24 13:03:45 elapsed 0:01:03.198
